32 3
5 7 9
0 0 0 0 30 2 3 4 5 6 7 8 9 10 11 12 13 14 15 16 17 18 19 20 21 22 23 24 25 26 27 28 29 30 31
2 4 1 1 1 32
4 1 2 1 1 32
2 4 1 1 1 32
5 5 1 3 1 25
2 1 2 3 1 22
3 1 1 3 1 32
6 4 2 1 1 23
4 2 2 3 1 25
6 3 2 2 1 13
3 1 1 2 1 28
3 2 1 3 1 32
4 2 1 1 1 28
3 3 2 1 1 23
2 2 1 1 1 28
4 2 1 1 2 23 25
2 2 1 3 1 30
2 2 1 1 1 32
6 3 2 3 1 30
5 1 1 1 1 25
3 2 2 2 1 24
1 4 1 3 1 25
5 4 1 3 1 32
4 3 2 3 1 27
2 2 2 3 1 32
4 2 2 1 1 32
5 2 2 2 1 32
3 5 1 1 1 32
3 3 1 1 1 30
3 1 1 3 1 32
5 3 1 1 1 32
0 0 0 0 0
